14:48:40 INFO: starting simulation...
14:48:40 INFO: num_compartments: 3
14:48:40 INFO: num_products: 3
14:48:40 INFO: num_destinations: 2
14:48:40 INFO: capacity_compartments: [783.40440094 844.06489869 700.02287496]
14:48:40 INFO: size_package: [18.02332573 16.46755891 15.92338595]
14:48:40 INFO: demand: [array([ 9., 12., 13.]), array([10.,  8., 13.])]
14:48:40 INFO: simulation end
14:48:40 INFO: getting data from instance...
14:48:40 INFO: SimpleTruckLoadingProblem
14:48:40 INFO: Academic license - for non-commercial use only - expires 2021-08-08
14:48:40 INFO: Using license file C:\Users\54498\gurobi.lic
14:48:40 INFO: Parameter OutputFlag unchanged
14:48:40 INFO:    Value: 1  Min: 0  Max: 1  Default: 1
14:48:40 INFO: Changed value of parameter LogFile to ./logs/gurobi.log
14:48:40 INFO:    Prev:   Default: 
14:48:40 INFO: Gurobi Optimizer version 9.1.2 build v9.1.2rc0 (win64)
14:48:40 INFO: Thread count: 4 physical cores, 8 logical processors, using up to 8 threads
14:48:40 INFO: Optimize a model with 15 rows, 19 columns and 66 nonzeros
14:48:40 INFO: Model fingerprint: 0x1da91bba
14:48:40 INFO: Variable types: 1 continuous, 18 integer (0 binary)
14:48:40 INFO: Coefficient statistics:
14:48:40 INFO:   Matrix range     [1e+00, 2e+01]
14:48:40 INFO:   Objective range  [1e+00, 1e+00]
14:48:40 INFO:   Bounds range     [0e+00, 0e+00]
14:48:40 INFO:   RHS range        [7e+02, 8e+02]
14:48:40 INFO: Found heuristic solution: objective -0.0000000
14:48:40 INFO: Presolve removed 6 rows and 0 columns
14:48:40 INFO: Presolve time: 0.00s
14:48:40 INFO: Presolved: 9 rows, 19 columns, 42 nonzeros
14:48:40 INFO: Variable types: 1 continuous, 18 integer (0 binary)
14:48:40 INFO: 
14:48:40 INFO: Root relaxation: objective 2.143569e+00, 13 iterations, 0.00 seconds
14:48:40 INFO: 
14:48:40 INFO:     Nodes    |    Current Node    |     Objective Bounds      |     Work
14:48:40 INFO:  Expl Unexpl |  Obj  Depth IntInf | Incumbent    BestBd   Gap | It/Node Time
14:48:40 INFO: 
14:48:40 INFO:      0     0    2.14357    0    8   -0.00000    2.14357      -     -    0s
14:48:40 INFO: H    0     0                       1.8888889    2.14357  13.5%     -    0s
14:48:40 INFO: H    0     0                       2.0833333    2.14357  2.89%     -    0s
14:48:40 INFO:      0     0    2.11832    0    9    2.08333    2.11832  1.68%     -    0s
14:48:40 INFO:      0     0    2.11781    0    9    2.08333    2.11781  1.65%     -    0s
14:48:40 INFO: H    0     0                       2.1000000    2.11781  0.85%     -    0s
14:48:40 INFO:      0     0    2.11165    0    9    2.10000    2.11165  0.55%     -    0s
14:48:40 INFO:      0     0    2.10525    0    8    2.10000    2.10525  0.25%     -    0s
14:48:40 INFO: H    0     0                       2.1000000    2.10525  0.25%     -    0s
14:48:40 INFO:      0     0    2.10460    0    6    2.10000    2.10460  0.22%     -    0s
14:48:40 INFO:      0     0    2.10460    0   10    2.10000    2.10460  0.22%     -    0s
14:48:40 INFO:      0     0    2.10460    0    8    2.10000    2.10460  0.22%     -    0s
14:48:40 INFO:      0     0    2.10460    0    9    2.10000    2.10460  0.22%     -    0s
14:48:40 INFO:      0     0    2.10460    0    9    2.10000    2.10460  0.22%     -    0s
14:48:40 INFO:      0     0    2.10460    0    9    2.10000    2.10460  0.22%     -    0s
14:48:40 INFO:      0     0    2.10460    0    9    2.10000    2.10460  0.22%     -    0s
14:48:40 INFO:      0     1    2.10460    0    9    2.10000    2.10460  0.22%     -    0s
14:48:40 INFO: 
14:48:40 INFO: Cutting planes:
14:48:40 INFO:   Gomory: 1
14:48:40 INFO:   MIR: 7
14:48:40 INFO: 
14:48:40 INFO: Explored 528 nodes (578 simplex iterations) in 0.22 seconds
14:48:40 INFO: Thread count was 8 (of 8 available processors)
14:48:40 INFO: 
14:48:40 INFO: Solution count 5: 2.1 2.1 2.08333 ... -0
14:48:40 INFO: 
14:48:40 INFO: Optimal solution found (tolerance 1.00e-04)
14:48:40 INFO: Best objective 2.100000011356e+00, best bound 2.100000011356e+00, gap 0.0000%
